NAME : A-n20-k7
CAPACITY : 350
NODE_COORD_SECTION
1   315   188
2   319   308
3   87   360
4   380   461
5   254   184
6   153   165
7   187   328
8   453   432
9   214   436
10   194   483
11   102   442
12   90   263
13   222   319
14   396   426
15   436   220
16   179   280
17   224   60
18   186   401
19   230   253
20   297   454
DEMAND_SECTION
1   0
2   95
3   27
4   75
5   97
6   54
7   13
8   38
9   73
10   14
11   54
12   36
13   96
14   94
15   68
16   42
17   76
18   15
19   19
20   32
DEPOT_SECTION
    1
    -1
EOF